30
1 0 39
2 0 8
2 1 5
3 0 15
3 1 35
3 2 7
4 0 27
4 1 28
4 2 7
4 3 24
5 0 18
5 1 30
5 2 8
5 3 36
5 4 17
6 0 20
6 1 25
6 2 35
6 3 30
6 4 12
6 5 6
7 0 8
7 1 18
7 2 40
7 3 39
7 4 12
7 5 12
7 6 26
8 0 10
8 1 1
8 2 22
8 3 35
8 4 25
8 5 21
8 6 23
8 7 37
9 0 23
9 1 18
9 2 10
9 3 6
9 4 1
9 5 39
9 6 21
9 7 3
9 8 17
10 0 25
10 1 1
10 2 27
10 3 17
10 4 29
10 5 9
10 6 13
10 7 22
10 8 4
10 9 19
11 0 10
11 1 39
11 2 6
11 3 9
11 4 7
11 5 35
11 6 20
11 7 40
11 8 38
11 9 2
11 10 1
12 0 7
12 1 12
12 2 36
12 3 27
12 4 13
12 5 13
12 6 39
12 7 22
12 8 35
12 9 6
12 10 25
12 11 7
13 0 20
13 1 38
13 2 7
13 3 32
13 4 1
13 5 11
13 6 6
13 7 11
13 8 4
13 9 14
13 10 15
13 11 35
13 12 3
14 0 22
14 1 26
14 2 1
14 3 18
14 4 32
14 5 19
14 6 29
14 7 37
14 8 3
14 9 9
14 10 10
14 11 8
14 12 13
14 13 23
15 0 25
15 1 29
15 2 32
15 3 3
15 4 15
15 5 7
15 6 15
15 7 9
15 8 7
15 9 16
15 10 6
15 11 15
15 12 2
15 13 5
15 14 37
16 0 13
16 1 8
16 2 17
16 3 1
16 4 29
16 5 39
16 6 4
16 7 13
16 8 1
16 9 40
16 10 10
16 11 2
16 12 7
16 13 8
16 14 27
16 15 10
17 0 8
17 1 19
17 2 40
17 3 4
17 4 35
17 5 30
17 6 24
17 7 24
17 8 40
17 9 27
17 10 32
17 11 3
17 12 5
17 13 31
17 14 23
17 15 27
17 16 6
18 0 12
18 1 15
18 2 39
18 3 12
18 4 33
18 5 9
18 6 38
18 7 40
18 8 17
18 9 14
18 10 9
18 11 2
18 12 36
18 13 11
18 14 12
18 15 24
18 16 17
18 17 29
19 0 10
19 1 17
19 2 23
19 3 2
19 4 35
19 5 13
19 6 35
19 7 1
19 8 14
19 9 7
19 10 27
19 11 38
19 12 11
19 13 24
19 14 29
19 15 31
19 16 37
19 17 40
19 18 11
20 0 17
20 1 25
20 2 14
20 3 28
20 4 23
20 5 27
20 6 6
20 7 7
20 8 33
20 9 26
20 10 10
20 11 22
20 12 18
20 13 20
20 14 29
20 15 27
20 16 33
20 17 30
20 18 33
20 19 32
21 0 33
21 1 13
21 2 20
21 3 33
21 4 28
21 5 12
21 6 17
21 7 14
21 8 30
21 9 14
21 10 14
21 11 1
21 12 4
21 13 24
21 14 1
21 15 20
21 16 37
21 17 18
21 18 10
21 19 2
21 20 32
22 0 10
22 1 30
22 2 28
22 3 31
22 4 5
22 5 36
22 6 14
22 7 32
22 8 8
22 9 17
22 10 2
22 11 11
22 12 10
22 13 32
22 14 40
22 15 27
22 16 5
22 17 30
22 18 12
22 19 4
22 20 28
22 21 6
23 0 30
23 1 36
23 2 18
23 3 19
23 4 19
23 5 14
23 6 21
23 7 2
23 8 29
23 9 27
23 10 35
23 11 11
23 12 17
23 13 20
23 14 7
23 15 19
23 16 12
23 17 28
23 18 17
23 19 26
23 20 23
23 21 3
23 22 11
24 0 32
24 1 22
24 2 15
24 3 34
24 4 14
24 5 28
24 6 26
24 7 8
24 8 33
24 9 36
24 10 1
24 11 38
24 12 37
24 13 5
24 14 9
24 15 26
24 16 17
24 17 21
24 18 16
24 19 38
24 20 37
24 21 32
24 22 12
24 23 22
25 0 37
25 1 23
25 2 22
25 3 27
25 4 5
25 5 24
25 6 5
25 7 9
25 8 29
25 9 16
25 10 21
25 11 7
25 12 9
25 13 31
25 14 26
25 15 36
25 16 36
25 17 31
25 18 26
25 19 38
25 20 36
25 21 27
25 22 29
25 23 12
25 24 2
26 0 27
26 1 34
26 2 17
26 3 6
26 4 14
26 5 38
26 6 34
26 7 38
26 8 14
26 9 6
26 10 14
26 11 33
26 12 22
26 13 31
26 14 27
26 15 28
26 16 37
26 17 17
26 18 14
26 19 37
26 20 26
26 21 11
26 22 14
26 23 16
26 24 11
26 25 20
27 0 11
27 1 25
27 2 40
27 3 11
27 4 21
27 5 23
27 6 16
27 7 2
27 8 31
27 9 6
27 10 2
27 11 32
27 12 7
27 13 39
27 14 40
27 15 12
27 16 31
27 17 30
27 18 40
27 19 12
27 20 27
27 21 3
27 22 33
27 23 13
27 24 1
27 25 38
27 26 12
28 0 39
28 1 29
28 2 9
28 3 35
28 4 38
28 5 28
28 6 12
28 7 20
28 8 35
28 9 38
28 10 8
28 11 23
28 12 33
28 13 34
28 14 14
28 15 3
28 16 9
28 17 7
28 18 18
28 19 35
28 20 19
28 21 3
28 22 40
28 23 19
28 24 12
28 25 34
28 26 38
28 27 40
29 0 33
29 1 8
29 2 6
29 3 16
29 4 32
29 5 27
29 6 23
29 7 22
29 8 30
29 9 30
29 10 26
29 11 5
29 12 23
29 13 23
29 14 40
29 15 37
29 16 38
29 17 30
29 18 28
29 19 33
29 20 36
29 21 38
29 22 18
29 23 10
29 24 39
29 25 9
29 26 20
29 27 18
29 28 6
